p tw 176 39601 2 
1 3 
1 4 
1 5 
1 6 
1 7 
1 8 
1 9 
1 10 
1 11 
1 12 
1 13 
1 14 
1 15 
1 16 
1 17 
1 18 
1 19 
1 20 
1 21 
1 22 
1 23 
1 24 
1 25 
1 26 
1 27 
1 28 
1 29 
1 30 
1 31 
1 32 
1 33 
1 34 
1 35 
1 36 
1 37 
1 38 
1 39 
1 40 
1 41 
1 42 
1 43 
1 44 
1 45 
1 46 
2 3 
2 4 
2 5 
2 6 
2 7 
2 8 
2 9 
2 10 
2 11 
2 12 
2 13 
2 14 
2 15 
2 16 
2 17 
2 18 
2 32 
2 33 
2 47 
2 48 
2 49 
2 50 
2 51 
2 52 
2 53 
2 54 
2 55 
2 56 
2 57 
2 58 
2 59 
2 60 
2 61 
2 62 
2 63 
2 64 
2 65 
2 66 
2 67 
2 68 
2 69 
2 70 
2 71 
2 72 
3 4 
3 5 
3 6 
3 7 
3 8 
3 9 
3 10 
3 11 
3 12 
3 13 
3 14 
3 15 
3 16 
3 19 
3 31 
3 34 
3 46 
3 47 
3 57 
3 60 
3 68 
3 73 
3 74 
3 75 
3 76 
3 77 
3 78 
3 79 
3 80 
3 81 
3 82 
3 83 
3 94 
3 100 
3 113 
3 114 
3 127 
3 131 
3 140 
3 149 
3 164 
3 168 
3 176 
4 5 
4 6 
4 7 
4 8 
4 9 
4 10 
4 11 
4 12 
4 13 
4 14 
4 15 
4 16 
4 20 
4 30 
4 33 
4 45 
4 47 
4 48 
4 61 
4 73 
4 84 
4 85 
4 86 
4 87 
4 88 
4 89 
4 90 
4 91 
4 92 
4 93 
4 94 
4 108 
4 119 
4 124 
4 133 
4 138 
4 146 
4 149 
4 159 
4 165 
4 173 
4 174 
5 6 
5 7 
5 8 
5 9 
5 10 
5 11 
5 12 
5 13 
5 14 
5 15 
5 16 
5 20 
5 27 
5 35 
5 42 
5 49 
5 56 
5 60 
5 61 
5 74 
5 88 
5 95 
5 96 
5 97 
5 98 
5 99 
5 100 
5 101 
5 102 
5 103 
5 104 
5 112 
5 117 
5 125 
5 131 
5 142 
5 153 
5 163 
5 165 
5 166 
5 167 
6 7 
6 8 
6 9 
6 10 
6 11 
6 12 
6 13 
6 14 
6 15 
6 16 
6 21 
6 26 
6 36 
6 38 
6 50 
6 55 
6 62 
6 67 
6 73 
6 74 
6 84 
6 98 
6 105 
6 106 
6 107 
6 108 
6 109 
6 110 
6 111 
6 112 
6 113 
6 114 
6 122 
6 135 
6 141 
6 142 
6 143 
6 144 
6 145 
6 146 
7 8 
7 9 
7 10 
7 11 
7 12 
7 13 
7 14 
7 15 
7 16 
7 22 
7 25 
7 36 
7 37 
7 51 
7 54 
7 63 
7 66 
7 75 
7 77 
7 85 
7 88 
7 95 
7 97 
7 105 
7 114 
7 115 
7 116 
7 117 
7 118 
7 119 
7 120 
7 121 
7 128 
7 135 
7 136 
7 137 
7 138 
7 139 
7 140 
8 9 
8 10 
8 11 
8 12 
8 13 
8 14 
8 15 
8 16 
8 23 
8 26 
8 37 
8 40 
8 50 
8 52 
8 64 
8 72 
8 76 
8 81 
8 86 
8 93 
8 96 
8 103 
8 106 
8 115 
8 121 
8 122 
8 123 
8 124 
8 125 
8 126 
8 127 
8 134 
8 137 
8 150 
8 164 
8 167 
8 169 
8 173 
9 10 
9 11 
9 12 
9 13 
9 14 
9 15 
9 16 
9 24 
9 30 
9 38 
9 44 
9 53 
9 54 
9 65 
9 72 
9 76 
9 82 
9 87 
9 90 
9 95 
9 99 
9 107 
9 110 
9 120 
9 127 
9 128 
9 129 
9 130 
9 131 
9 132 
9 133 
9 134 
9 145 
9 154 
9 163 
9 170 
9 172 
10 11 
10 12 
10 13 
10 14 
10 15 
10 16 
10 21 
10 23 
10 32 
10 39 
10 56 
10 65 
10 67 
10 77 
10 78 
10 89 
10 94 
10 99 
10 103 
10 105 
10 118 
10 125 
10 129 
10 136 
10 146 
10 147 
10 148 
10 149 
10 150 
10 151 
10 156 
10 157 
10 162 
10 170 
10 171 
10 175 
11 12 
11 13 
11 14 
11 15 
11 16 
11 17 
11 28 
11 34 
11 40 
11 52 
11 63 
11 70 
11 79 
11 87 
11 89 
11 100 
11 102 
11 108 
11 111 
11 116 
11 123 
11 128 
11 138 
11 141 
11 143 
11 147 
11 152 
11 153 
11 154 
11 155 
11 156 
11 157 
11 161 
11 163 
11 164 
12 13 
12 14 
12 15 
12 16 
12 27 
12 29 
12 35 
12 41 
12 53 
12 59 
12 66 
12 68 
12 75 
12 80 
12 86 
12 90 
12 96 
12 109 
12 112 
12 115 
12 132 
12 136 
12 141 
12 145 
12 148 
12 155 
12 157 
12 158 
12 159 
12 160 
12 161 
12 173 
12 175 
12 176 
13 14 
13 15 
13 16 
13 18 
13 22 
13 39 
13 46 
13 57 
13 58 
13 69 
13 80 
13 82 
13 85 
13 91 
13 101 
13 104 
13 110 
13 111 
13 122 
13 124 
13 130 
13 133 
13 137 
13 139 
13 142 
13 151 
13 152 
13 155 
13 158 
13 161 
13 162 
13 167 
13 171 
14 15 
14 16 
14 28 
14 31 
14 41 
14 43 
14 51 
14 58 
14 62 
14 71 
14 78 
14 83 
14 92 
14 93 
14 97 
14 101 
14 106 
14 120 
14 123 
14 130 
14 132 
14 135 
14 144 
14 147 
14 153 
14 158 
14 165 
14 168 
14 169 
14 170 
14 174 
14 175 
15 16 
15 24 
15 29 
15 44 
15 45 
15 55 
15 59 
15 69 
15 71 
15 81 
15 83 
15 84 
15 92 
15 102 
15 104 
15 113 
15 117 
15 118 
15 121 
15 126 
15 129 
15 139 
15 143 
15 150 
15 152 
15 156 
15 159 
15 160 
15 166 
15 168 
15 172 
16 19 
16 25 
16 42 
16 43 
16 48 
16 49 
16 64 
16 70 
16 79 
16 91 
16 98 
16 107 
16 109 
16 116 
16 119 
16 126 
16 134 
16 140 
16 144 
16 148 
16 151 
16 154 
16 160 
16 162 
16 166 
16 169 
16 171 
16 172 
16 174 
16 176 
17 18 
17 19 
17 20 
17 21 
17 22 
17 23 
17 24 
17 25 
17 26 
17 27 
17 28 
17 29 
17 30 
17 31 
17 32 
17 40 
17 47 
17 48 
17 49 
17 50 
17 51 
17 52 
17 53 
17 54 
17 55 
17 56 
17 57 
17 58 
17 59 
17 63 
17 79 
17 89 
17 100 
17 108 
17 123 
17 128 
17 141 
17 152 
17 153 
17 154 
17 155 
17 156 
18 19 
18 20 
18 21 
18 22 
18 23 
18 24 
18 25 
18 26 
18 27 
18 28 
18 29 
18 30 
18 31 
18 33 
18 46 
18 58 
18 60 
18 61 
18 62 
18 63 
18 64 
18 65 
18 66 
18 67 
18 68 
18 69 
18 70 
18 71 
18 72 
18 82 
18 85 
18 104 
18 111 
18 122 
18 133 
18 139 
18 151 
18 155 
18 158 
18 167 
18 171 
19 20 
19 21 
19 22 
19 23 
19 24 
19 25 
19 26 
19 27 
19 28 
19 29 
19 30 
19 31 
19 34 
19 42 
19 47 
19 49 
19 60 
19 70 
19 73 
19 74 
19 75 
19 76 
19 77 
19 78 
19 79 
19 80 
19 81 
19 82 
19 83 
19 91 
19 107 
19 119 
19 126 
19 140 
19 144 
19 148 
19 154 
19 160 
19 169 
19 171 
20 21 
20 22 
20 23 
20 24 
20 25 
20 26 
20 27 
20 28 
20 29 
20 30 
20 31 
20 33 
20 35 
20 48 
20 49 
20 61 
20 73 
20 74 
20 84 
20 85 
20 86 
20 87 
20 88 
20 89 
20 90 
20 91 
20 92 
20 93 
20 94 
20 95 
20 96 
20 97 
20 98 
20 99 
20 100 
20 101 
20 102 
20 103 
20 104 
21 22 
21 23 
21 24 
21 25 
21 26 
21 27 
21 28 
21 29 
21 30 
21 31 
21 32 
21 36 
21 50 
21 62 
21 65 
21 74 
21 77 
21 84 
21 94 
21 103 
21 105 
21 106 
21 107 
21 108 
21 109 
21 110 
21 111 
21 112 
21 113 
21 118 
21 125 
21 146 
21 156 
21 157 
21 162 
21 170 
21 171 
21 175 
22 23 
22 24 
22 25 
22 26 
22 27 
22 28 
22 29 
22 30 
22 31 
22 37 
22 39 
22 51 
22 57 
22 63 
22 69 
22 75 
22 80 
22 85 
22 91 
22 95 
22 101 
22 105 
22 110 
22 114 
22 115 
22 116 
22 117 
22 118 
22 119 
22 120 
22 124 
22 130 
22 137 
22 142 
22 152 
22 161 
22 162 
23 24 
23 25 
23 26 
23 27 
23 28 
23 29 
23 30 
23 31 
23 37 
23 39 
23 52 
23 56 
23 64 
23 67 
23 76 
23 78 
23 86 
23 89 
23 96 
23 99 
23 105 
23 106 
23 121 
23 122 
23 123 
23 124 
23 125 
23 126 
23 127 
23 129 
23 136 
23 147 
23 148 
23 149 
23 150 
23 151 
24 25 
24 26 
24 27 
24 28 
24 29 
24 30 
24 31 
24 38 
24 45 
24 53 
24 59 
24 65 
24 69 
24 76 
24 83 
24 87 
24 92 
24 95 
24 104 
24 107 
24 113 
24 117 
24 121 
24 128 
24 129 
24 130 
24 131 
24 132 
24 133 
24 134 
24 143 
24 150 
24 156 
24 160 
24 172 
25 26 
25 27 
25 28 
25 29 
25 30 
25 31 
25 36 
25 43 
25 48 
25 54 
25 64 
25 66 
25 77 
25 79 
25 88 
25 97 
25 98 
25 109 
25 116 
25 121 
25 128 
25 134 
25 135 
25 136 
25 137 
25 138 
25 139 
25 140 
25 151 
25 162 
25 166 
25 172 
25 174 
25 176 
26 27 
26 28 
26 29 
26 30 
26 31 
26 38 
26 40 
26 50 
26 55 
26 67 
26 72 
26 73 
26 81 
26 93 
26 98 
26 103 
26 114 
26 115 
26 122 
26 134 
26 135 
26 137 
26 141 
26 142 
26 143 
26 144 
26 145 
26 146 
26 150 
26 164 
26 167 
26 169 
26 173 
27 28 
27 29 
27 30 
27 31 
27 41 
27 42 
27 53 
27 56 
27 60 
27 68 
27 80 
27 88 
27 90 
27 96 
27 109 
27 112 
27 115 
27 117 
27 125 
27 131 
27 136 
27 141 
27 142 
27 153 
27 157 
27 158 
27 159 
27 160 
27 163 
27 165 
27 166 
27 167 
28 29 
28 30 
28 31 
28 34 
28 43 
28 51 
28 52 
28 62 
28 70 
28 78 
28 87 
28 92 
28 101 
28 102 
28 111 
28 116 
28 123 
28 132 
28 135 
28 138 
28 143 
28 147 
28 157 
28 158 
28 161 
28 163 
28 164 
28 165 
28 168 
28 169 
28 170 
29 30 
29 31 
29 35 
29 44 
29 55 
29 59 
29 66 
29 71 
29 75 
29 81 
29 84 
29 86 
29 102 
29 112 
29 118 
29 126 
29 129 
29 132 
29 139 
29 145 
29 148 
29 152 
29 155 
29 159 
29 161 
29 166 
29 168 
29 173 
29 175 
29 176 
30 31 
30 44 
30 45 
30 47 
30 54 
30 61 
30 72 
30 82 
30 90 
30 99 
30 108 
30 110 
30 119 
30 120 
30 124 
30 127 
30 133 
30 138 
30 145 
30 146 
30 149 
30 154 
30 159 
30 163 
30 165 
30 170 
30 172 
30 173 
30 174 
31 41 
31 46 
31 57 
31 58 
31 68 
31 71 
31 83 
31 93 
31 94 
31 97 
31 100 
31 106 
31 113 
31 114 
31 120 
31 127 
31 130 
31 131 
31 140 
31 144 
31 147 
31 149 
31 153 
31 164 
31 168 
31 174 
31 175 
31 176 
32 33 
32 34 
32 35 
32 36 
32 37 
32 38 
32 39 
32 40 
32 41 
32 42 
32 43 
32 44 
32 45 
32 46 
32 47 
32 48 
32 49 
32 50 
32 51 
32 52 
32 53 
32 54 
32 55 
32 56 
32 57 
32 58 
32 59 
32 65 
32 77 
32 94 
32 103 
32 118 
32 125 
32 146 
32 156 
32 157 
32 162 
32 170 
32 171 
32 175 
33 34 
33 35 
33 36 
33 37 
33 38 
33 39 
33 40 
33 41 
33 42 
33 43 
33 44 
33 45 
33 46 
33 48 
33 60 
33 61 
33 62 
33 63 
33 64 
33 65 
33 66 
33 67 
33 68 
33 69 
33 70 
33 71 
33 72 
33 73 
33 84 
33 85 
33 86 
33 87 
33 88 
33 89 
33 90 
33 91 
33 92 
33 93 
33 94 
34 35 
34 36 
34 37 
34 38 
34 39 
34 40 
34 41 
34 42 
34 43 
34 44 
34 45 
34 46 
34 47 
34 52 
34 60 
34 70 
34 73 
34 74 
34 75 
34 76 
34 77 
34 78 
34 79 
34 80 
34 81 
34 82 
34 83 
34 87 
34 102 
34 111 
34 116 
34 138 
34 143 
34 147 
34 157 
34 161 
34 163 
34 164 
35 36 
35 37 
35 38 
35 39 
35 40 
35 41 
35 42 
35 43 
35 44 
35 45 
35 46 
35 49 
35 59 
35 61 
35 66 
35 74 
35 75 
35 86 
35 95 
35 96 
35 97 
35 98 
35 99 
35 100 
35 101 
35 102 
35 103 
35 104 
35 112 
35 132 
35 145 
35 148 
35 155 
35 161 
35 173 
35 175 
35 176 
36 37 
36 38 
36 39 
36 40 
36 41 
36 42 
36 43 
36 44 
36 45 
36 46 
36 50 
36 54 
36 62 
36 66 
36 74 
36 77 
36 84 
36 88 
36 97 
36 105 
36 106 
36 107 
36 108 
36 109 
36 110 
36 111 
36 112 
36 113 
36 121 
36 128 
36 135 
36 136 
36 137 
36 138 
36 139 
36 140 
37 38 
37 39 
37 40 
37 41 
37 42 
37 43 
37 44 
37 45 
37 46 
37 51 
37 52 
37 63 
37 64 
37 75 
37 76 
37 85 
37 86 
37 95 
37 96 
37 105 
37 106 
37 114 
37 115 
37 116 
37 117 
37 118 
37 119 
37 120 
37 121 
37 122 
37 123 
37 124 
37 125 
37 126 
37 127 
38 39 
38 40 
38 41 
38 42 
38 43 
38 44 
38 45 
38 46 
38 53 
38 55 
38 65 
38 67 
38 73 
38 76 
38 87 
38 95 
38 98 
38 107 
38 114 
38 122 
38 128 
38 129 
38 130 
38 131 
38 132 
38 133 
38 134 
38 135 
38 141 
38 142 
38 143 
38 144 
38 145 
38 146 
39 40 
39 41 
39 42 
39 43 
39 44 
39 45 
39 46 
39 56 
39 57 
39 67 
39 69 
39 78 
39 80 
39 89 
39 91 
39 99 
39 101 
39 105 
39 110 
39 124 
39 129 
39 130 
39 136 
39 137 
39 142 
39 147 
39 148 
39 149 
39 150 
39 151 
39 152 
39 161 
39 162 
40 41 
40 42 
40 43 
40 44 
40 45 
40 46 
40 50 
40 63 
40 72 
40 79 
40 81 
40 89 
40 93 
40 100 
40 103 
40 108 
40 115 
40 123 
40 128 
40 134 
40 137 
40 141 
40 150 
40 152 
40 153 
40 154 
40 155 
40 156 
40 164 
40 167 
40 169 
40 173 
41 42 
41 43 
41 44 
41 45 
41 46 
41 53 
41 58 
41 68 
41 71 
41 80 
41 83 
41 90 
41 93 
41 96 
41 97 
41 106 
41 109 
41 115 
41 120 
41 130 
41 136 
41 141 
41 144 
41 147 
41 153 
41 157 
41 158 
41 159 
41 160 
41 174 
41 175 
42 43 
42 44 
42 45 
42 46 
42 49 
42 56 
42 60 
42 70 
42 88 
42 91 
42 107 
42 112 
42 117 
42 119 
42 125 
42 126 
42 131 
42 140 
42 142 
42 144 
42 148 
42 153 
42 154 
42 160 
42 163 
42 165 
42 166 
42 167 
42 169 
42 171 
43 44 
43 45 
43 46 
43 48 
43 51 
43 62 
43 64 
43 78 
43 79 
43 92 
43 98 
43 101 
43 109 
43 116 
43 123 
43 132 
43 134 
43 135 
43 151 
43 158 
43 162 
43 165 
43 166 
43 168 
43 169 
43 170 
43 172 
43 174 
43 176 
44 45 
44 46 
44 54 
44 55 
44 71 
44 72 
44 81 
44 82 
44 84 
44 90 
44 99 
44 102 
44 110 
44 118 
44 120 
44 126 
44 127 
44 129 
44 139 
44 145 
44 152 
44 154 
44 159 
44 163 
44 166 
44 168 
44 170 
44 172 
45 46 
45 47 
45 59 
45 61 
45 69 
45 83 
45 92 
45 104 
45 108 
45 113 
45 117 
45 119 
45 121 
45 124 
45 133 
45 138 
45 143 
45 146 
45 149 
45 150 
45 156 
45 159 
45 160 
45 165 
45 172 
45 173 
45 174 
46 57 
46 58 
46 68 
46 82 
46 85 
46 94 
46 100 
46 104 
46 111 
46 113 
46 114 
46 122 
46 127 
46 131 
46 133 
46 139 
46 140 
46 149 
46 151 
46 155 
46 158 
46 164 
46 167 
46 168 
46 171 
46 176 
47 48 
47 49 
47 50 
47 51 
47 52 
47 53 
47 54 
47 55 
47 56 
47 57 
47 58 
47 59 
47 60 
47 61 
47 73 
47 74 
47 75 
47 76 
47 77 
47 78 
47 79 
47 80 
47 81 
47 82 
47 83 
47 108 
47 119 
47 124 
47 133 
47 138 
47 146 
47 149 
47 159 
47 165 
47 173 
47 174 
48 49 
48 50 
48 51 
48 52 
48 53 
48 54 
48 55 
48 56 
48 57 
48 58 
48 59 
48 64 
48 73 
48 79 
48 84 
48 85 
48 86 
48 87 
48 88 
48 89 
48 90 
48 91 
48 92 
48 93 
48 94 
48 98 
48 109 
48 116 
48 134 
48 151 
48 162 
48 166 
48 172 
48 174 
48 176 
49 50 
49 51 
49 52 
49 53 
49 54 
49 55 
49 56 
49 57 
49 58 
49 59 
49 61 
49 70 
49 74 
49 91 
49 95 
49 96 
49 97 
49 98 
49 99 
49 100 
49 101 
49 102 
49 103 
49 104 
49 107 
49 119 
49 126 
49 140 
49 144 
49 148 
49 154 
49 160 
49 169 
49 171 
50 51 
50 52 
50 53 
50 54 
50 55 
50 56 
50 57 
50 58 
50 59 
50 62 
50 72 
50 74 
50 81 
50 84 
50 93 
50 103 
50 105 
50 106 
50 107 
50 108 
50 109 
50 110 
50 111 
50 112 
50 113 
50 115 
50 134 
50 137 
50 150 
50 164 
50 167 
50 169 
50 173 
51 52 
51 53 
51 54 
51 55 
51 56 
51 57 
51 58 
51 59 
51 62 
51 63 
51 75 
51 78 
51 85 
51 92 
51 95 
51 101 
51 105 
51 114 
51 115 
51 116 
51 117 
51 118 
51 119 
51 120 
51 123 
51 132 
51 135 
51 158 
51 165 
51 168 
51 169 
51 170 
52 53 
52 54 
52 55 
52 56 
52 57 
52 58 
52 59 
52 64 
52 70 
52 76 
52 86 
52 87 
52 96 
52 102 
52 106 
52 111 
52 116 
52 121 
52 122 
52 123 
52 124 
52 125 
52 126 
52 127 
52 138 
52 143 
52 147 
52 157 
52 161 
52 163 
52 164 
53 54 
53 55 
53 56 
53 57 
53 58 
53 59 
53 65 
53 68 
53 76 
53 80 
53 87 
53 90 
53 95 
53 96 
53 107 
53 109 
53 115 
53 128 
53 129 
53 130 
53 131 
53 132 
53 133 
53 134 
53 136 
53 141 
53 157 
53 158 
53 159 
53 160 
54 55 
54 56 
54 57 
54 58 
54 59 
54 66 
54 72 
54 77 
54 82 
54 88 
54 90 
54 97 
54 99 
54 110 
54 120 
54 121 
54 127 
54 128 
54 135 
54 136 
54 137 
54 138 
54 139 
54 140 
54 145 
54 154 
54 163 
54 170 
54 172 
55 56 
55 57 
55 58 
55 59 
55 67 
55 71 
55 73 
55 81 
55 84 
55 98 
55 102 
55 114 
55 118 
55 122 
55 126 
55 129 
55 135 
55 139 
55 141 
55 142 
55 143 
55 144 
55 145 
55 146 
55 152 
55 159 
55 166 
55 168 
56 57 
56 58 
56 59 
56 60 
56 67 
56 78 
56 88 
56 89 
56 99 
56 105 
56 112 
56 117 
56 125 
56 129 
56 131 
56 136 
56 142 
56 147 
56 148 
56 149 
56 150 
56 151 
56 153 
56 163 
56 165 
56 166 
56 167 
57 58 
57 59 
57 68 
57 69 
57 80 
57 91 
57 94 
57 100 
57 101 
57 110 
57 113 
57 114 
57 124 
57 127 
57 130 
57 131 
57 137 
57 140 
57 142 
57 149 
57 152 
57 161 
57 162 
57 164 
57 168 
57 176 
58 59 
58 71 
58 82 
58 83 
58 85 
58 93 
58 97 
58 104 
58 106 
58 111 
58 120 
58 122 
58 130 
58 133 
58 139 
58 144 
58 147 
58 151 
58 153 
58 155 
58 158 
58 167 
58 171 
58 174 
58 175 
59 66 
59 69 
59 75 
59 83 
59 86 
59 92 
59 104 
59 112 
59 113 
59 117 
59 121 
59 132 
59 143 
59 145 
59 148 
59 150 
59 155 
59 156 
59 160 
59 161 
59 172 
59 173 
59 175 
59 176 
60 61 
60 62 
60 63 
60 64 
60 65 
60 66 
60 67 
60 68 
60 69 
60 70 
60 71 
60 72 
60 73 
60 74 
60 75 
60 76 
60 77 
60 78 
60 79 
60 80 
60 81 
60 82 
60 83 
60 88 
60 112 
60 117 
60 125 
60 131 
60 142 
60 153 
60 163 
60 165 
60 166 
60 167 
61 62 
61 63 
61 64 
61 65 
61 66 
61 67 
61 68 
61 69 
61 70 
61 71 
61 72 
61 74 
61 95 
61 96 
61 97 
61 98 
61 99 
61 100 
61 101 
61 102 
61 103 
61 104 
61 108 
61 119 
61 124 
61 133 
61 138 
61 146 
61 149 
61 159 
61 165 
61 173 
61 174 
62 63 
62 64 
62 65 
62 66 
62 67 
62 68 
62 69 
62 70 
62 71 
62 72 
62 74 
62 78 
62 84 
62 92 
62 101 
62 105 
62 106 
62 107 
62 108 
62 109 
62 110 
62 111 
62 112 
62 113 
62 123 
62 132 
62 135 
62 158 
62 165 
62 168 
62 169 
62 170 
63 64 
63 65 
63 66 
63 67 
63 68 
63 69 
63 70 
63 71 
63 72 
63 75 
63 79 
63 85 
63 89 
63 95 
63 100 
63 105 
63 108 
63 114 
63 115 
63 116 
63 117 
63 118 
63 119 
63 120 
63 123 
63 128 
63 141 
63 152 
63 153 
63 154 
63 155 
63 156 
64 65 
64 66 
64 67 
64 68 
64 69 
64 70 
64 71 
64 72 
64 76 
64 79 
64 86 
64 96 
64 98 
64 106 
64 109 
64 116 
64 121 
64 122 
64 123 
64 124 
64 125 
64 126 
64 127 
64 134 
64 151 
64 162 
64 166 
64 172 
64 174 
64 176 
65 66 
65 67 
65 68 
65 69 
65 70 
65 71 
65 72 
65 76 
65 77 
65 87 
65 94 
65 95 
65 103 
65 107 
65 118 
65 125 
65 128 
65 129 
65 130 
65 131 
65 132 
65 133 
65 134 
65 146 
65 156 
65 157 
65 162 
65 170 
65 171 
65 175 
66 67 
66 68 
66 69 
66 70 
66 71 
66 72 
66 75 
66 77 
66 86 
66 88 
66 97 
66 112 
66 121 
66 128 
66 132 
66 135 
66 136 
66 137 
66 138 
66 139 
66 140 
66 145 
66 148 
66 155 
66 161 
66 173 
66 175 
66 176 
67 68 
67 69 
67 70 
67 71 
67 72 
67 73 
67 78 
67 89 
67 98 
67 99 
67 105 
67 114 
67 122 
67 129 
67 135 
67 136 
67 141 
67 142 
67 143 
67 144 
67 145 
67 146 
67 147 
67 148 
67 149 
67 150 
67 151 
68 69 
68 70 
68 71 
68 72 
68 80 
68 90 
68 94 
68 96 
68 100 
68 109 
68 113 
68 114 
68 115 
68 127 
68 131 
68 136 
68 140 
68 141 
68 149 
68 157 
68 158 
68 159 
68 160 
68 164 
68 168 
68 176 
69 70 
69 71 
69 72 
69 80 
69 83 
69 91 
69 92 
69 101 
69 104 
69 110 
69 113 
69 117 
69 121 
69 124 
69 130 
69 137 
69 142 
69 143 
69 150 
69 152 
69 156 
69 160 
69 161 
69 162 
69 172 
70 71 
70 72 
70 87 
70 91 
70 102 
70 107 
70 111 
70 116 
70 119 
70 126 
70 138 
70 140 
70 143 
70 144 
70 147 
70 148 
70 154 
70 157 
70 160 
70 161 
70 163 
70 164 
70 169 
70 171 
71 72 
71 81 
71 83 
71 84 
71 93 
71 97 
71 102 
71 106 
71 118 
71 120 
71 126 
71 129 
71 130 
71 139 
71 144 
71 147 
71 152 
71 153 
71 159 
71 166 
71 168 
71 174 
71 175 
72 81 
72 82 
72 90 
72 93 
72 99 
72 103 
72 110 
72 115 
72 120 
72 127 
72 134 
72 137 
72 145 
72 150 
72 154 
72 163 
72 164 
72 167 
72 169 
72 170 
72 172 
72 173 
73 74 
73 75 
73 76 
73 77 
73 78 
73 79 
73 80 
73 81 
73 82 
73 83 
73 84 
73 85 
73 86 
73 87 
73 88 
73 89 
73 90 
73 91 
73 92 
73 93 
73 94 
73 98 
73 114 
73 122 
73 135 
73 141 
73 142 
73 143 
73 144 
73 145 
73 146 
74 75 
74 76 
74 77 
74 78 
74 79 
74 80 
74 81 
74 82 
74 83 
74 84 
74 95 
74 96 
74 97 
74 98 
74 99 
74 100 
74 101 
74 102 
74 103 
74 104 
74 105 
74 106 
74 107 
74 108 
74 109 
74 110 
74 111 
74 112 
74 113 
75 76 
75 77 
75 78 
75 79 
75 80 
75 81 
75 82 
75 83 
75 85 
75 86 
75 95 
75 105 
75 112 
75 114 
75 115 
75 116 
75 117 
75 118 
75 119 
75 120 
75 132 
75 145 
75 148 
75 155 
75 161 
75 173 
75 175 
75 176 
76 77 
76 78 
76 79 
76 80 
76 81 
76 82 
76 83 
76 86 
76 87 
76 95 
76 96 
76 106 
76 107 
76 121 
76 122 
76 123 
76 124 
76 125 
76 126 
76 127 
76 128 
76 129 
76 130 
76 131 
76 132 
76 133 
76 134 
77 78 
77 79 
77 80 
77 81 
77 82 
77 83 
77 88 
77 94 
77 97 
77 103 
77 118 
77 121 
77 125 
77 128 
77 135 
77 136 
77 137 
77 138 
77 139 
77 140 
77 146 
77 156 
77 157 
77 162 
77 170 
77 171 
77 175 
78 79 
78 80 
78 81 
78 82 
78 83 
78 89 
78 92 
78 99 
78 101 
78 105 
78 123 
78 129 
78 132 
78 135 
78 136 
78 147 
78 148 
78 149 
78 150 
78 151 
78 158 
78 165 
78 168 
78 169 
78 170 
79 80 
79 81 
79 82 
79 83 
79 89 
79 98 
79 100 
79 108 
79 109 
79 116 
79 123 
79 128 
79 134 
79 141 
79 151 
79 152 
79 153 
79 154 
79 155 
79 156 
79 162 
79 166 
79 172 
79 174 
79 176 
80 81 
80 82 
80 83 
80 90 
80 91 
80 96 
80 101 
80 109 
80 110 
80 115 
80 124 
80 130 
80 136 
80 137 
80 141 
80 142 
80 152 
80 157 
80 158 
80 159 
80 160 
80 161 
80 162 
81 82 
81 83 
81 84 
81 93 
81 102 
81 103 
81 115 
81 118 
81 126 
81 129 
81 134 
81 137 
81 139 
81 150 
81 152 
81 159 
81 164 
81 166 
81 167 
81 168 
81 169 
81 173 
82 83 
82 85 
82 90 
82 99 
82 104 
82 110 
82 111 
82 120 
82 122 
82 127 
82 133 
82 139 
82 145 
82 151 
82 154 
82 155 
82 158 
82 163 
82 167 
82 170 
82 171 
82 172 
83 92 
83 93 
83 97 
83 104 
83 106 
83 113 
83 117 
83 120 
83 121 
83 130 
83 143 
83 144 
83 147 
83 150 
83 153 
83 156 
83 160 
83 172 
83 174 
83 175 
84 85 
84 86 
84 87 
84 88 
84 89 
84 90 
84 91 
84 92 
84 93 
84 94 
84 102 
84 105 
84 106 
84 107 
84 108 
84 109 
84 110 
84 111 
84 112 
84 113 
84 118 
84 126 
84 129 
84 139 
84 152 
84 159 
84 166 
84 168 
85 86 
85 87 
85 88 
85 89 
85 90 
85 91 
85 92 
85 93 
85 94 
85 95 
85 104 
85 105 
85 111 
85 114 
85 115 
85 116 
85 117 
85 118 
85 119 
85 120 
85 122 
85 133 
85 139 
85 151 
85 155 
85 158 
85 167 
85 171 
86 87 
86 88 
86 89 
86 90 
86 91 
86 92 
86 93 
86 94 
86 96 
86 106 
86 112 
86 121 
86 122 
86 123 
86 124 
86 125 
86 126 
86 127 
86 132 
86 145 
86 148 
86 155 
86 161 
86 173 
86 175 
86 176 
87 88 
87 89 
87 90 
87 91 
87 92 
87 93 
87 94 
87 95 
87 102 
87 107 
87 111 
87 116 
87 128 
87 129 
87 130 
87 131 
87 132 
87 133 
87 134 
87 138 
87 143 
87 147 
87 157 
87 161 
87 163 
87 164 
88 89 
88 90 
88 91 
88 92 
88 93 
88 94 
88 97 
88 112 
88 117 
88 121 
88 125 
88 128 
88 131 
88 135 
88 136 
88 137 
88 138 
88 139 
88 140 
88 142 
88 153 
88 163 
88 165 
88 166 
88 167 
89 90 
89 91 
89 92 
89 93 
89 94 
89 99 
89 100 
89 105 
89 108 
89 123 
89 128 
89 129 
89 136 
89 141 
89 147 
89 148 
89 149 
89 150 
89 151 
89 152 
89 153 
89 154 
89 155 
89 156 
90 91 
90 92 
90 93 
90 94 
90 96 
90 99 
90 109 
90 110 
90 115 
90 120 
90 127 
90 136 
90 141 
90 145 
90 154 
90 157 
90 158 
90 159 
90 160 
90 163 
90 170 
90 172 
91 92 
91 93 
91 94 
91 101 
91 107 
91 110 
91 119 
91 124 
91 126 
91 130 
91 137 
91 140 
91 142 
91 144 
91 148 
91 152 
91 154 
91 160 
91 161 
91 162 
91 169 
91 171 
92 93 
92 94 
92 101 
92 104 
92 113 
92 117 
92 121 
92 123 
92 132 
92 135 
92 143 
92 150 
92 156 
92 158 
92 160 
92 165 
92 168 
92 169 
92 170 
92 172 
93 94 
93 97 
93 103 
93 106 
93 115 
93 120 
93 130 
93 134 
93 137 
93 144 
93 147 
93 150 
93 153 
93 164 
93 167 
93 169 
93 173 
93 174 
93 175 
94 100 
94 103 
94 113 
94 114 
94 118 
94 125 
94 127 
94 131 
94 140 
94 146 
94 149 
94 156 
94 157 
94 162 
94 164 
94 168 
94 170 
94 171 
94 175 
94 176 
95 96 
95 97 
95 98 
95 99 
95 100 
95 101 
95 102 
95 103 
95 104 
95 105 
95 107 
95 114 
95 115 
95 116 
95 117 
95 118 
95 119 
95 120 
95 128 
95 129 
95 130 
95 131 
95 132 
95 133 
95 134 
96 97 
96 98 
96 99 
96 100 
96 101 
96 102 
96 103 
96 104 
96 106 
96 109 
96 115 
96 121 
96 122 
96 123 
96 124 
96 125 
96 126 
96 127 
96 136 
96 141 
96 157 
96 158 
96 159 
96 160 
97 98 
97 99 
97 100 
97 101 
97 102 
97 103 
97 104 
97 106 
97 120 
97 121 
97 128 
97 130 
97 135 
97 136 
97 137 
97 138 
97 139 
97 140 
97 144 
97 147 
97 153 
97 174 
97 175 
98 99 
98 100 
98 101 
98 102 
98 103 
98 104 
98 109 
98 114 
98 116 
98 122 
98 134 
98 135 
98 141 
98 142 
98 143 
98 144 
98 145 
98 146 
98 151 
98 162 
98 166 
98 172 
98 174 
98 176 
99 100 
99 101 
99 102 
99 103 
99 104 
99 105 
99 110 
99 120 
99 127 
99 129 
99 136 
99 145 
99 147 
99 148 
99 149 
99 150 
99 151 
99 154 
99 163 
99 170 
99 172 
100 101 
100 102 
100 103 
100 104 
100 108 
100 113 
100 114 
100 123 
100 127 
100 128 
100 131 
100 140 
100 141 
100 149 
100 152 
100 153 
100 154 
100 155 
100 156 
100 164 
100 168 
100 176 
101 102 
101 103 
101 104 
101 110 
101 123 
101 124 
101 130 
101 132 
101 135 
101 137 
101 142 
101 152 
101 158 
101 161 
101 162 
101 165 
101 168 
101 169 
101 170 
102 103 
102 104 
102 111 
102 116 
102 118 
102 126 
102 129 
102 138 
102 139 
102 143 
102 147 
102 152 
102 157 
102 159 
102 161 
102 163 
102 164 
102 166 
102 168 
103 104 
103 115 
103 118 
103 125 
103 134 
103 137 
103 146 
103 150 
103 156 
103 157 
103 162 
103 164 
103 167 
103 169 
103 170 
103 171 
103 173 
103 175 
104 111 
104 113 
104 117 
104 121 
104 122 
104 133 
104 139 
104 143 
104 150 
104 151 
104 155 
104 156 
104 158 
104 160 
104 167 
104 171 
104 172 
105 106 
105 107 
105 108 
105 109 
105 110 
105 111 
105 112 
105 113 
105 114 
105 115 
105 116 
105 117 
105 118 
105 119 
105 120 
105 129 
105 136 
105 147 
105 148 
105 149 
105 150 
105 151 
106 107 
106 108 
106 109 
106 110 
106 111 
106 112 
106 113 
106 120 
106 121 
106 122 
106 123 
106 124 
106 125 
106 126 
106 127 
106 130 
106 144 
106 147 
106 153 
106 174 
106 175 
107 108 
107 109 
107 110 
107 111 
107 112 
107 113 
107 119 
107 126 
107 128 
107 129 
107 130 
107 131 
107 132 
107 133 
107 134 
107 140 
107 144 
107 148 
107 154 
107 160 
107 169 
107 171 
108 109 
108 110 
108 111 
108 112 
108 113 
108 119 
108 123 
108 124 
108 128 
108 133 
108 138 
108 141 
108 146 
108 149 
108 152 
108 153 
108 154 
108 155 
108 156 
108 159 
108 165 
108 173 
108 174 
109 110 
109 111 
109 112 
109 113 
109 115 
109 116 
109 134 
109 136 
109 141 
109 151 
109 157 
109 158 
109 159 
109 160 
109 162 
109 166 
109 172 
109 174 
109 176 
110 111 
110 112 
110 113 
110 120 
110 124 
110 127 
110 130 
110 137 
110 142 
110 145 
110 152 
110 154 
110 161 
110 162 
110 163 
110 170 
110 172 
111 112 
111 113 
111 116 
111 122 
111 133 
111 138 
111 139 
111 143 
111 147 
111 151 
111 155 
111 157 
111 158 
111 161 
111 163 
111 164 
111 167 
111 171 
112 113 
112 117 
112 125 
112 131 
112 132 
112 142 
112 145 
112 148 
112 153 
112 155 
112 161 
112 163 
112 165 
112 166 
112 167 
112 173 
112 175 
112 176 
113 114 
113 117 
113 121 
113 127 
113 131 
113 140 
113 143 
113 149 
113 150 
113 156 
113 160 
113 164 
113 168 
113 172 
113 176 
114 115 
114 116 
114 117 
114 118 
114 119 
114 120 
114 122 
114 127 
114 131 
114 135 
114 140 
114 141 
114 142 
114 143 
114 144 
114 145 
114 146 
114 149 
114 164 
114 168 
114 176 
115 116 
115 117 
115 118 
115 119 
115 120 
115 134 
115 136 
115 137 
115 141 
115 150 
115 157 
115 158 
115 159 
115 160 
115 164 
115 167 
115 169 
115 173 
116 117 
116 118 
116 119 
116 120 
116 134 
116 138 
116 143 
116 147 
116 151 
116 157 
116 161 
116 162 
116 163 
116 164 
116 166 
116 172 
116 174 
116 176 
117 118 
117 119 
117 120 
117 121 
117 125 
117 131 
117 142 
117 143 
117 150 
117 153 
117 156 
117 160 
117 163 
117 165 
117 166 
117 167 
117 172 
118 119 
118 120 
118 125 
118 126 
118 129 
118 139 
118 146 
118 152 
118 156 
118 157 
118 159 
118 162 
118 166 
118 168 
118 170 
118 171 
118 175 
119 120 
119 124 
119 126 
119 133 
119 138 
119 140 
119 144 
119 146 
119 148 
119 149 
119 154 
119 159 
119 160 
119 165 
119 169 
119 171 
119 173 
119 174 
120 127 
120 130 
120 144 
120 145 
120 147 
120 153 
120 154 
120 163 
120 170 
120 172 
120 174 
120 175 
121 122 
121 123 
121 124 
121 125 
121 126 
121 127 
121 128 
121 135 
121 136 
121 137 
121 138 
121 139 
121 140 
121 143 
121 150 
121 156 
121 160 
121 172 
122 123 
122 124 
122 125 
122 126 
122 127 
122 133 
122 135 
122 139 
122 141 
122 142 
122 143 
122 144 
122 145 
122 146 
122 151 
122 155 
122 158 
122 167 
122 171 
123 124 
123 125 
123 126 
123 127 
123 128 
123 132 
123 135 
123 141 
123 152 
123 153 
123 154 
123 155 
123 156 
123 158 
123 165 
123 168 
123 169 
123 170 
124 125 
124 126 
124 127 
124 130 
124 133 
124 137 
124 138 
124 142 
124 146 
124 149 
124 152 
124 159 
124 161 
124 162 
124 165 
124 173 
124 174 
125 126 
125 127 
125 131 
125 142 
125 146 
125 153 
125 156 
125 157 
125 162 
125 163 
125 165 
125 166 
125 167 
125 170 
125 171 
125 175 
126 127 
126 129 
126 139 
126 140 
126 144 
126 148 
126 152 
126 154 
126 159 
126 160 
126 166 
126 168 
126 169 
126 171 
127 131 
127 140 
127 145 
127 149 
127 154 
127 163 
127 164 
127 168 
127 170 
127 172 
127 176 
128 129 
128 130 
128 131 
128 132 
128 133 
128 134 
128 135 
128 136 
128 137 
128 138 
128 139 
128 140 
128 141 
128 152 
128 153 
128 154 
128 155 
128 156 
129 130 
129 131 
129 132 
129 133 
129 134 
129 136 
129 139 
129 147 
129 148 
129 149 
129 150 
129 151 
129 152 
129 159 
129 166 
129 168 
130 131 
130 132 
130 133 
130 134 
130 137 
130 142 
130 144 
130 147 
130 152 
130 153 
130 161 
130 162 
130 174 
130 175 
131 132 
131 133 
131 134 
131 140 
131 142 
131 149 
131 153 
131 163 
131 164 
131 165 
131 166 
131 167 
131 168 
131 176 
132 133 
132 134 
132 135 
132 145 
132 148 
132 155 
132 158 
132 161 
132 165 
132 168 
132 169 
132 170 
132 173 
132 175 
132 176 
133 134 
133 138 
133 139 
133 146 
133 149 
133 151 
133 155 
133 158 
133 159 
133 165 
133 167 
133 171 
133 173 
133 174 
134 137 
134 150 
134 151 
134 162 
134 164 
134 166 
134 167 
134 169 
134 172 
134 173 
134 174 
134 176 
135 136 
135 137 
135 138 
135 139 
135 140 
135 141 
135 142 
135 143 
135 144 
135 145 
135 146 
135 158 
135 165 
135 168 
135 169 
135 170 
136 137 
136 138 
136 139 
136 140 
136 141 
136 147 
136 148 
136 149 
136 150 
136 151 
136 157 
136 158 
136 159 
136 160 
137 138 
137 139 
137 140 
137 142 
137 150 
137 152 
137 161 
137 162 
137 164 
137 167 
137 169 
137 173 
138 139 
138 140 
138 143 
138 146 
138 147 
138 149 
138 157 
138 159 
138 161 
138 163 
138 164 
138 165 
138 173 
138 174 
139 140 
139 151 
139 152 
139 155 
139 158 
139 159 
139 166 
139 167 
139 168 
139 171 
140 144 
140 148 
140 149 
140 154 
140 160 
140 164 
140 168 
140 169 
140 171 
140 176 
141 142 
141 143 
141 144 
141 145 
141 146 
141 152 
141 153 
141 154 
141 155 
141 156 
141 157 
141 158 
141 159 
141 160 
142 143 
142 144 
142 145 
142 146 
142 152 
142 153 
142 161 
142 162 
142 163 
142 165 
142 166 
142 167 
143 144 
143 145 
143 146 
143 147 
143 150 
143 156 
143 157 
143 160 
143 161 
143 163 
143 164 
143 172 
144 145 
144 146 
144 147 
144 148 
144 153 
144 154 
144 160 
144 169 
144 171 
144 174 
144 175 
145 146 
145 148 
145 154 
145 155 
145 161 
145 163 
145 170 
145 172 
145 173 
145 175 
145 176 
146 149 
146 156 
146 157 
146 159 
146 162 
146 165 
146 170 
146 171 
146 173 
146 174 
146 175 
147 148 
147 149 
147 150 
147 151 
147 153 
147 157 
147 161 
147 163 
147 164 
147 174 
147 175 
148 149 
148 150 
148 151 
148 154 
148 155 
148 160 
148 161 
148 169 
148 171 
148 173 
148 175 
148 176 
149 150 
149 151 
149 159 
149 164 
149 165 
149 168 
149 173 
149 174 
149 176 
150 151 
150 156 
150 160 
150 164 
150 167 
150 169 
150 172 
150 173 
151 155 
151 158 
151 162 
151 166 
151 167 
151 171 
151 172 
151 174 
151 176 
152 153 
152 154 
152 155 
152 156 
152 159 
152 161 
152 162 
152 166 
152 168 
153 154 
153 155 
153 156 
153 163 
153 165 
153 166 
153 167 
153 174 
153 175 
154 155 
154 156 
154 160 
154 163 
154 169 
154 170 
154 171 
154 172 
155 156 
155 158 
155 161 
155 167 
155 171 
155 173 
155 175 
155 176 
156 157 
156 160 
156 162 
156 170 
156 171 
156 172 
156 175 
157 158 
157 159 
157 160 
157 161 
157 162 
157 163 
157 164 
157 170 
157 171 
157 175 
158 159 
158 160 
158 165 
158 167 
158 168 
158 169 
158 170 
158 171 
159 160 
159 165 
159 166 
159 168 
159 173 
159 174 
160 169 
160 171 
160 172 
161 162 
161 163 
161 164 
161 173 
161 175 
161 176 
162 166 
162 170 
162 171 
162 172 
162 174 
162 175 
162 176 
163 164 
163 165 
163 166 
163 167 
163 170 
163 172 
164 167 
164 168 
164 169 
164 173 
164 176 
165 166 
165 167 
165 168 
165 169 
165 170 
165 173 
165 174 
166 167 
166 168 
166 172 
166 174 
166 176 
167 169 
167 171 
167 173 
168 169 
168 170 
168 176 
169 170 
169 171 
169 173 
170 171 
170 172 
170 175 
171 175 
172 174 
172 176 
173 174 
173 175 
173 176 
174 175 
174 176 
175 176 
